p cnf 68 128
1 0
5 0
9 0
13 0
-1 -5 18 0
-2 -6 19 0
-3 -7 20 0
-9 -13 22 0
-10 -14 23 0
-11 -15 24 0
-17 -21 26 0
-18 -22 27 0
-19 -23 28 0
-25 30 0
-26 31 0
-27 32 0
-41 33 0
-41 35 0
41 -33 -35 0
-43 -37 -39 0
37 43 0
39 43 0
-45 41 43 0
-41 45 0
-43 45 0
-47 -45 0
45 47 0
-42 34 0
-42 36 0
42 -34 -36 0
-44 -38 -40 0
38 44 0
40 44 0
-46 42 44 0
-42 46 0
-44 46 0
-48 -46 0
46 48 0
33 34 -49 0
-33 -34 -49 0
33 -34 49 0
-33 34 49 0
35 36 -50 0
-35 -36 -50 0
35 -36 50 0
-35 36 50 0
37 38 -51 0
-37 -38 -51 0
37 -38 51 0
-37 38 51 0
39 40 -52 0
-39 -40 -52 0
39 -40 52 0
-39 40 52 0
41 42 -53 0
-41 -42 -53 0
41 -42 53 0
-41 42 53 0
43 44 -54 0
-43 -44 -54 0
43 -44 54 0
-43 44 54 0
45 46 -55 0
-45 -46 -55 0
45 -46 55 0
-45 46 55 0
47 48 -56 0
-47 -48 -56 0
47 -48 56 0
-47 48 56 0
-57 64 0
-58 64 0
-59 65 0
-60 65 0
-61 66 0
-61 64 0
-62 66 0
-62 65 0
-63 67 0
-63 66 0
-64 57 58 0
-64 -57 -58 0
-65 59 60 0
-65 -59 -60 0
-66 61 62 0
-66 -61 -62 0
-67 63 0
-64 61 0
-65 62 0
-66 63 0
-67 68 0
57 58 59 60 0
-57 -58 0
-57 -59 0
-57 -60 0
-58 -59 0
-58 -60 0
-59 -60 0
68 0
-68 67 0
64 0
-57 49 0
-58 50 0
-59 51 0
-60 52 0
-61 53 0
-62 54 0
-63 55 0
-57 53 0
-58 53 0
-59 54 0
-60 54 0
-61 55 0
-62 55 0
-63 56 0
-57 35 0
-57 36 0
-58 33 0
-58 34 0
-59 39 0
-59 40 0
-60 37 0
-60 38 0
-61 -43 0
-61 -44 0
-62 -41 0
-62 -42 0
-68 56 0
