p wcnf 100 147 16
16 1 0
16 9 0
16 17 0
16 25 0
16 -1 -9 34 0
16 -2 -10 35 0
16 -3 -11 36 0
16 -4 -12 37 0
16 -5 -13 38 0
16 -6 -14 39 0
16 -7 -15 40 0
16 -17 -25 45 0
16 -18 -26 46 0
16 -19 -27 47 0
16 -20 -28 48 0
16 -33 -41 51 0
16 -34 -42 52 0
16 -35 -43 53 0
16 -36 -44 54 0
16 -37 -45 55 0
16 -38 -46 56 0
16 -49 58 0
16 -50 59 0
16 -51 60 0
16 -52 61 0
16 -53 62 0
16 -54 63 0
16 -55 64 0
16 -73 65 0
16 -73 67 0
16 73 -65 -67 0
16 -75 -69 -71 0
16 69 75 0
16 71 75 0
16 -77 73 75 0
16 -73 77 0
16 -75 77 0
16 -79 -77 0
16 77 79 0
16 -74 66 0
16 -74 68 0
16 74 -66 -68 0
16 -76 -70 -72 0
16 70 76 0
16 72 76 0
16 -78 74 76 0
16 -74 78 0
16 -76 78 0
16 -80 -78 0
16 78 80 0
16 65 66 -81 0
16 -65 -66 -81 0
16 65 -66 81 0
16 -65 66 81 0
16 67 68 -82 0
16 -67 -68 -82 0
16 67 -68 82 0
16 -67 68 82 0
16 69 70 -83 0
16 -69 -70 -83 0
16 69 -70 83 0
16 -69 70 83 0
16 71 72 -84 0
16 -71 -72 -84 0
16 71 -72 84 0
16 -71 72 84 0
16 73 74 -85 0
16 -73 -74 -85 0
16 73 -74 85 0
16 -73 74 85 0
16 75 76 -86 0
16 -75 -76 -86 0
16 75 -76 86 0
16 -75 76 86 0
16 77 78 -87 0
16 -77 -78 -87 0
16 77 -78 87 0
16 -77 78 87 0
16 79 80 -88 0
16 -79 -80 -88 0
16 79 -80 88 0
16 -79 80 88 0
16 -89 96 0
16 -90 96 0
16 -91 97 0
16 -92 97 0
16 -93 98 0
16 -93 96 0
16 -94 98 0
16 -94 97 0
16 -95 99 0
16 -95 98 0
16 -96 89 90 0
16 -96 -89 -90 0
16 -97 91 92 0
16 -97 -91 -92 0
16 -98 93 94 0
16 -98 -93 -94 0
16 -99 95 0
16 -96 93 0
16 -97 94 0
16 -98 95 0
16 -99 100 0
16 89 90 91 92 0
16 -89 -90 0
16 -89 -91 0
16 -89 -92 0
16 -90 -91 0
16 -90 -92 0
16 -91 -92 0
16 100 0
16 -100 99 0
16 97 0
16 -89 81 0
16 -90 82 0
16 -91 83 0
16 -92 84 0
16 -93 85 0
16 -94 86 0
16 -95 87 0
16 -89 85 0
16 -90 85 0
16 -91 86 0
16 -92 86 0
16 -93 87 0
16 -94 87 0
16 -95 88 0
16 -89 67 0
16 -89 68 0
16 -90 65 0
16 -90 66 0
16 -91 71 0
16 -91 72 0
16 -92 69 0
16 -92 70 0
16 -93 -75 0
16 -93 -76 0
16 -94 -73 0
16 -94 -74 0
16 -100 88 0
1 89 0
1 90 0
4 91 0
4 92 0
2 93 0
2 94 0
1 95 0
