p wcnf 116 153 17
17 1 0
17 11 0
17 21 0
17 31 0
17 -1 -11 43 0
17 -2 -12 44 0
17 -3 -13 45 0
17 -4 -14 46 0
17 -5 -15 47 0
17 -6 -16 48 0
17 -7 -17 49 0
17 -8 -18 50 0
17 -21 -31 52 0
17 -22 -32 53 0
17 -23 -33 54 0
17 -24 -34 55 0
17 -25 -35 56 0
17 -26 -36 57 0
17 -27 -37 58 0
17 -28 -38 59 0
17 -29 -39 60 0
17 -41 -51 64 0
17 -42 -52 65 0
17 -43 -53 66 0
17 -44 -54 67 0
17 -45 -55 68 0
17 -46 -56 69 0
17 -47 -57 70 0
17 -61 75 0
17 -62 76 0
17 -63 77 0
17 -64 78 0
17 -65 79 0
17 -66 80 0
17 -89 81 0
17 -89 83 0
17 89 -81 -83 0
17 -91 -85 -87 0
17 85 91 0
17 87 91 0
17 -93 89 91 0
17 -89 93 0
17 -91 93 0
17 -95 -93 0
17 93 95 0
17 -90 82 0
17 -90 84 0
17 90 -82 -84 0
17 -92 -86 -88 0
17 86 92 0
17 88 92 0
17 -94 90 92 0
17 -90 94 0
17 -92 94 0
17 -96 -94 0
17 94 96 0
17 81 82 -97 0
17 -81 -82 -97 0
17 81 -82 97 0
17 -81 82 97 0
17 83 84 -98 0
17 -83 -84 -98 0
17 83 -84 98 0
17 -83 84 98 0
17 85 86 -99 0
17 -85 -86 -99 0
17 85 -86 99 0
17 -85 86 99 0
17 87 88 -100 0
17 -87 -88 -100 0
17 87 -88 100 0
17 -87 88 100 0
17 89 90 -101 0
17 -89 -90 -101 0
17 89 -90 101 0
17 -89 90 101 0
17 91 92 -102 0
17 -91 -92 -102 0
17 91 -92 102 0
17 -91 92 102 0
17 93 94 -103 0
17 -93 -94 -103 0
17 93 -94 103 0
17 -93 94 103 0
17 95 96 -104 0
17 -95 -96 -104 0
17 95 -96 104 0
17 -95 96 104 0
17 -105 112 0
17 -106 112 0
17 -107 113 0
17 -108 113 0
17 -109 114 0
17 -109 112 0
17 -110 114 0
17 -110 113 0
17 -111 115 0
17 -111 114 0
17 -112 105 106 0
17 -112 -105 -106 0
17 -113 107 108 0
17 -113 -107 -108 0
17 -114 109 110 0
17 -114 -109 -110 0
17 -115 111 0
17 -112 109 0
17 -113 110 0
17 -114 111 0
17 -115 116 0
17 105 106 107 108 0
17 -105 -106 0
17 -105 -107 0
17 -105 -108 0
17 -106 -107 0
17 -106 -108 0
17 -107 -108 0
17 116 0
17 -116 115 0
17 112 0
17 -105 97 0
17 -106 98 0
17 -107 99 0
17 -108 100 0
17 -109 101 0
17 -110 102 0
17 -111 103 0
17 -105 101 0
17 -106 101 0
17 -107 102 0
17 -108 102 0
17 -109 103 0
17 -110 103 0
17 -111 104 0
17 -105 83 0
17 -105 84 0
17 -106 81 0
17 -106 82 0
17 -107 87 0
17 -107 88 0
17 -108 85 0
17 -108 86 0
17 -109 -91 0
17 -109 -92 0
17 -110 -89 0
17 -110 -90 0
17 -116 104 0
2 105 0
2 106 0
1 107 0
1 108 0
3 109 0
3 110 0
4 111 0
